Traveling Salesman Problem/TSP_generados/Aleatorio1620390897_7.tsp
NAME: Aleatorio1620390897_7.tsp
COMMENT: Randomly generated scenario
TYPE: TSP
DIMENSION: 7
EDGE_WEIGHT_TYPE: ATT
NODE_COORD_SECTION
1 37.2 34.12
2 30.74 14.31
3 0.2 13.62
4 29.98 9.69
5 31.92 25.5
6 46.79 12.41
7 49.26 42.62
