Traveling Salesman Problem/TSP_generados/Aleatorio1620390897_7.opt.tour
NAME: Aleatorio1620390897_7.opt.tour
COMMENT: Optimal solution for Aleatorio1620390897_7 (139.92787248988213)
TYPE: TOUR
DIMENSION: 7
TOUR_SECTION
1 5 3 4 2 6 7
-1
EOF
